AES/1_5_4/ssaes_r1-20_c5_rw1_e4_f0_k1-20_aes_canon_box_aes_mc_bidirectional/ExperimentMinisat_r3_k9cnf_2011-10-29-155236/Result
WARNING: for repeatability, setting FPU to use double precision
============================[ Problem Statistics ]=============================
|                                                                             |
|  Number of variables:           612                                         |
|  Number of clauses:            3410                                         |
|  Parse time:                   0.00 s                                       |
|  Eliminated clauses:           0.01 Mb                                      |
|  Simplification time:          0.00 s                                       |
|                                                                             |
=============================[ Search Statistics ]==============================
| Conflicts  |          ORIGINAL         |          LEARNT          | Progress |
|            |    Vars  Clauses Literals |    Limit  Clauses Lit/Cl |          |
================================================================================
|        100 |     462     3014     9326 |     1105      100     25 |  8.501 % |
|        250 |     462     3014     9326 |     1215      250     31 |  8.497 % |
|        475 |     462     3014     9326 |     1337      475     29 |  8.499 % |
|        812 |     462     3014     9326 |     1470      812     25 |  8.499 % |
|       1318 |     462     3014     9326 |     1618     1318     23 |  8.499 % |
|       2077 |     462     3014     9326 |     1779     1222     18 |  8.497 % |
|       3216 |     462     3014     9326 |     1957     1421     16 |  8.497 % |
|       4924 |     462     3014     9326 |     2153     1110     14 |  8.497 % |
|       7486 |     462     3014     9326 |     2368     1426     13 |  8.497 % |
===============================================================================
restarts              : 38
conflicts             : 9089           (31896 /sec)
decisions             : 11093          (0.00 % random) (38929 /sec)
propagations          : 1444607        (5069579 /sec)
conflict literals     : 165994         (39.65 % deleted)
Memory used           : 8.00 MB
CPU time              : 0.284956 s

SATISFIABLE
